(set-info :smt-lib-version 2.6)
(set-logic LIA)
(set-info
  :source |
 Generated by PSyCO 0.1
 More info in N. P. Lopes and J. Monteiro. Weakest Precondition Synthesis for
 Compiler Optimizations, VMCAI'14.
|)
(set-info :category "industrial")
(set-info :status unsat)
(declare-fun R_E1_V6 () Bool)
(declare-fun W_S1_V6 () Bool)
(declare-fun R_E1_V4 () Bool)
(declare-fun W_S1_V4 () Bool)
(declare-fun W_S1_V3 () Bool)
(declare-fun W_S1_V1 () Bool)
(declare-fun R_S1_V6 () Bool)
(declare-fun R_S1_V4 () Bool)
(declare-fun R_S1_V5 () Bool)
(declare-fun R_S1_V2 () Bool)
(declare-fun R_S1_V3 () Bool)
(declare-fun R_S1_V1 () Bool)
(declare-fun R_E2_V6 () Bool)
(declare-fun R_E2_V4 () Bool)
(declare-fun R_E2_V5 () Bool)
(declare-fun R_E2_V2 () Bool)
(declare-fun R_E2_V1 () Bool)
(declare-fun R_E1_V5 () Bool)
(declare-fun DISJ_W_S1_R_S1 () Bool)
(declare-fun DISJ_W_S1_R_E2 () Bool)
(declare-fun W_S1_V5 () Bool)
(declare-fun W_S1_V2 () Bool)
(declare-fun R_E1_V3 () Bool)
(declare-fun R_E1_V1 () Bool)
(declare-fun R_E2_V3 () Bool)
(declare-fun DISJ_W_S1_R_E1 () Bool)
(assert
 (let (($x56 (and W_S1_V6 R_E1_V6)))
 (let (($x64210 (not $x56)))
 (let (($x54 (and W_S1_V4 R_E1_V4)))
 (let (($x64201 (not $x54)))
 (let
 (($x62691
   (forall
    ((V2_0 Int) (V5_0 Int) 
     (V4_0 Int) (V6_0 Int) 
     (MW_S1_V1 Bool) (MW_S1_V3 Bool) 
     (MW_S1_V2 Bool) (MW_S1_V5 Bool) 
     (MW_S1_V4 Bool) (MW_S1_V6 Bool) 
     (S1_V1_!7824 Int) (S1_V1_!7834 Int) 
     (S1_V1_!7840 Int) (S1_V3_!7825 Int) 
     (S1_V3_!7835 Int) (S1_V3_!7841 Int) 
     (S1_V2_!7826 Int) (S1_V2_!7836 Int) 
     (S1_V2_!7842 Int) (E1_!7821 Int) 
     (E1_!7831 Int) (E1_!7833 Int) 
     (S1_V5_!7827 Int) (S1_V5_!7837 Int) 
     (S1_V5_!7843 Int) (E2_!7822 Int) 
     (E2_!7823 Int) (E2_!7830 Int) 
     (E2_!7832 Int) (S1_V4_!7828 Int) 
     (S1_V4_!7838 Int) (S1_V4_!7844 Int) 
     (S1_V6_!7829 Int) (S1_V6_!7839 Int) 
     (S1_V6_!7845 Int))
    (let ((?x62646 (ite MW_S1_V6 S1_V6_!7845 V6_0)))
    (let ((?x62740 (ite MW_S1_V6 S1_V6_!7829 V6_0)))
    (let (($x60118 (= ?x62740 ?x62646)))
    (let ((?x63221 (ite MW_S1_V4 S1_V4_!7844 V4_0)))
    (let ((?x62637 (ite MW_S1_V4 S1_V4_!7828 V4_0)))
    (let (($x63790 (= ?x62637 ?x63221)))
    (let ((?x64768 (ite MW_S1_V5 S1_V5_!7843 V5_0)))
    (let ((?x63944 (ite MW_S1_V5 S1_V5_!7827 V5_0)))
    (let (($x61094 (= ?x63944 ?x64768)))
    (let ((?x63015 (ite MW_S1_V2 S1_V2_!7842 V2_0)))
    (let ((?x62339 (ite MW_S1_V2 S1_V2_!7826 V2_0)))
    (let (($x64241 (= ?x62339 ?x63015)))
    (let ((?x60962 (ite MW_S1_V3 S1_V3_!7841 E2_!7832)))
    (let ((?x64778 (+ 1 ?x60962)))
    (let (($x63433 (= E2_!7830 ?x64778)))
    (let ((?x62430 (ite MW_S1_V1 S1_V1_!7834 E1_!7833)))
    (let ((?x64247 (+ 1 ?x62430)))
    (let ((?x61039 (ite MW_S1_V1 S1_V1_!7840 ?x64247)))
    (let ((?x62847 (+ (- 1) ?x61039)))
    (let ((?x62331 (ite MW_S1_V1 S1_V1_!7824 E1_!7821)))
    (let (($x63863 (= ?x62331 ?x62847)))
    (let (($x61069 (and $x63863 $x63433 $x64241 $x61094 $x63790 $x60118)))
    (let ((?x62918 (+ (- 1) ?x63221)))
    (let (($x64163 (>= ?x60962 ?x62918)))
    (let ((?x63513 (+ (- 1) ?x63015)))
    (let (($x63800 (>= ?x61039 ?x63513)))
    (let ((?x64474 (ite MW_S1_V2 S1_V2_!7836 V2_0)))
    (let (($x64620 (<= ?x64474 ?x64247)))
    (let (($x62706 (not $x64620)))
    (let (($x63837 (<= V2_0 E1_!7833)))
    (let (($x64895 (not $x63837)))
    (let (($x63951 (<= V4_0 E2_!7832)))
    (let (($x63378 (not $x63951)))
    (let (($x63665 (<= V2_0 E1_!7831)))
    (let (($x60183 (not $x63665)))
    (let ((?x61441 (+ (- 2) ?x62339)))
    (let (($x63384 (>= ?x62331 ?x61441)))
    (let (($x64858 (>= E2_!7830 ?x62637)))
    (let ((?x61359 (+ 1 ?x62331)))
    (let (($x62713 (<= ?x62339 ?x61359)))
    (let (($x64076 (not $x62713)))
    (let ((?x63048 (+ (- 1) ?x62637)))
    (let ((?x63539 (ite MW_S1_V3 S1_V3_!7825 E2_!7823)))
    (let (($x63171 (>= ?x63539 ?x63048)))
    (let (($x63862 (<= V4_0 E2_!7823)))
    (let (($x63627 (not $x63862)))
    (let (($x63041 (<= V2_0 E1_!7821)))
    (let (($x63675 (not $x63041)))
    (let (($x64146 (<= V4_0 E2_!7822)))
    (let (($x63230 (not $x64146)))
    (let
    (($x63975
      (and $x63230 $x63675 $x63627 $x63171 $x64076 $x64858 $x63384 $x60183
      $x63378 $x64895 $x62706 $x63800 $x64163)))
    (let (($x60161 (not $x63975)))
    (let (($x62780 (not MW_S1_V6)))
    (let (($x62785 (or $x62780 W_S1_V6)))
    (let (($x60115 (not MW_S1_V4)))
    (let (($x64330 (or $x60115 W_S1_V4)))
    (let (($x60958 (not MW_S1_V2)))
    (let (($x63674 (not MW_S1_V3)))
    (let (($x64218 (or $x63674 W_S1_V3)))
    (let (($x64343 (not MW_S1_V1)))
    (let (($x59908 (or $x64343 W_S1_V1)))
    (let (($x62565 (= S1_V6_!7845 S1_V6_!7839)))
    (let ((?x64129 (ite MW_S1_V6 S1_V6_!7839 V6_0)))
    (let (($x62642 (= ?x64129 V6_0)))
    (let (($x207 (not R_S1_V6)))
    (let (($x61393 (or $x207 $x62642)))
    (let ((?x64223 (ite MW_S1_V4 S1_V4_!7838 V4_0)))
    (let (($x64114 (= ?x64223 V4_0)))
    (let (($x205 (not R_S1_V4)))
    (let (($x64017 (or $x205 $x64114)))
    (let ((?x62826 (ite MW_S1_V5 S1_V5_!7837 V5_0)))
    (let (($x60285 (= ?x62826 V5_0)))
    (let (($x203 (not R_S1_V5)))
    (let (($x63714 (or $x203 $x60285)))
    (let (($x62396 (= ?x64474 V2_0)))
    (let (($x201 (not R_S1_V2)))
    (let (($x64012 (or $x201 $x62396)))
    (let ((?x62338 (ite MW_S1_V3 S1_V3_!7835 E2_!7832)))
    (let (($x64177 (= ?x62338 E2_!7832)))
    (let (($x199 (not R_S1_V3)))
    (let (($x62771 (or $x199 $x64177)))
    (let ((?x62677 (+ (- 1) E1_!7833)))
    (let (($x63778 (= ?x62430 ?x62677)))
    (let (($x197 (not R_S1_V1)))
    (let (($x63352 (or $x197 $x63778)))
    (let (($x64013 (and $x63352 $x62771 $x64012 $x63714 $x64017 $x61393)))
    (let (($x62327 (not $x64013)))
    (let (($x62485 (or $x62327 $x62565)))
    (let (($x63161 (= S1_V6_!7845 S1_V6_!7829)))
    (let (($x62621 (= ?x62338 E2_!7823)))
    (let (($x63947 (or $x199 $x62621)))
    (let ((?x62391 (+ (- 1) E1_!7821)))
    (let (($x61194 (= ?x62430 ?x62391)))
    (let (($x64520 (or $x197 $x61194)))
    (let (($x62966 (and $x64520 $x63947 $x64012 $x63714 $x64017 $x61393)))
    (let (($x64052 (not $x62966)))
    (let (($x63272 (or $x64052 $x63161)))
    (let (($x60117 (= S1_V6_!7839 S1_V6_!7829)))
    (let (($x63915 (= E2_!7832 E2_!7823)))
    (let (($x62594 (or $x199 $x63915)))
    (let (($x63315 (= E1_!7833 E1_!7821)))
    (let (($x63747 (or $x197 $x63315)))
    (let (($x63784 (and $x63747 $x62594)))
    (let (($x62901 (not $x63784)))
    (let (($x63369 (or $x62901 $x60117)))
    (let (($x63087 (= S1_V4_!7844 S1_V4_!7828)))
    (let (($x64970 (or $x64052 $x63087)))
    (let (($x64356 (= S1_V4_!7838 S1_V4_!7844)))
    (let (($x60006 (= V6_0 ?x64129)))
    (let (($x60114 (or $x207 $x60006)))
    (let (($x64936 (= V4_0 ?x64223)))
    (let (($x60881 (or $x205 $x64936)))
    (let (($x62809 (= V5_0 ?x62826)))
    (let (($x64040 (or $x203 $x62809)))
    (let (($x63121 (= V2_0 ?x64474)))
    (let (($x64900 (or $x201 $x63121)))
    (let (($x63034 (= E2_!7832 ?x62338)))
    (let (($x63453 (or $x199 $x63034)))
    (let (($x63743 (= E1_!7833 ?x64247)))
    (let (($x64286 (or $x197 $x63743)))
    (let (($x63971 (and $x64286 $x63453 $x64900 $x64040 $x60881 $x60114)))
    (let (($x63374 (not $x63971)))
    (let (($x61431 (or $x63374 $x64356)))
    (let (($x60065 (= S1_V4_!7838 S1_V4_!7828)))
    (let (($x64316 (or $x62901 $x60065)))
    (let (($x62839 (= E2_!7830 E2_!7832)))
    (let (($x64014 (= ?x62740 V6_0)))
    (let (($x138 (not R_E2_V6)))
    (let (($x62849 (or $x138 $x64014)))
    (let (($x62614 (= ?x62637 V4_0)))
    (let (($x136 (not R_E2_V4)))
    (let (($x62549 (or $x136 $x62614)))
    (let (($x63149 (= ?x63944 V5_0)))
    (let (($x134 (not R_E2_V5)))
    (let (($x62928 (or $x134 $x63149)))
    (let (($x63633 (= ?x62339 V2_0)))
    (let (($x132 (not R_E2_V2)))
    (let (($x64740 (or $x132 $x63633)))
    (let ((?x64776 (+ (- 1) E1_!7831)))
    (let (($x61407 (= ?x62331 ?x64776)))
    (let (($x128 (not R_E2_V1)))
    (let (($x60225 (or $x128 $x61407)))
    (let (($x64324 (and $x60225 $x64740 $x62928 $x62549 $x62849)))
    (let (($x60058 (not $x64324)))
    (let (($x64657 (or $x60058 $x62839)))
    (let (($x64922 (= E2_!7830 E2_!7823)))
    (let (($x63452 (= ?x62331 ?x62391)))
    (let (($x63120 (or $x128 $x63452)))
    (let (($x60931 (and $x63120 $x64740 $x62928 $x62549 $x62849)))
    (let (($x63068 (not $x60931)))
    (let (($x62735 (or $x63068 $x64922)))
    (let (($x62557 (= E2_!7830 E2_!7822)))
    (let (($x62856 (or $x63068 $x62557)))
    (let (($x62460 (= E2_!7823 E2_!7832)))
    (let (($x62355 (= E1_!7821 E1_!7831)))
    (let (($x63601 (or $x128 $x62355)))
    (let (($x63536 (not $x63601)))
    (let (($x63912 (or $x63536 $x62460)))
    (let (($x59853 (= E2_!7822 E2_!7832)))
    (let (($x60193 (or $x63536 $x59853)))
    (let (($x62484 (= E2_!7822 E2_!7823)))
    (let (($x63095 (= S1_V5_!7843 S1_V5_!7827)))
    (let (($x64121 (or $x64052 $x63095)))
    (let (($x62353 (= S1_V5_!7837 S1_V5_!7843)))
    (let (($x62882 (or $x63374 $x62353)))
    (let (($x63474 (= S1_V5_!7837 S1_V5_!7827)))
    (let (($x64963 (or $x62901 $x63474)))
    (let (($x60930 (= E1_!7833 E1_!7831)))
    (let (($x63176 (= E1_!7821 E1_!7833)))
    (let (($x60159 (= S1_V2_!7842 S1_V2_!7836)))
    (let (($x62351 (or $x62327 $x60159)))
    (let (($x64277 (= S1_V2_!7842 S1_V2_!7826)))
    (let (($x60997 (or $x64052 $x64277)))
    (let (($x64561 (= S1_V2_!7836 S1_V2_!7826)))
    (let (($x62915 (or $x62901 $x64561)))
    (let (($x60014 (= S1_V3_!7841 S1_V3_!7835)))
    (let (($x62836 (or $x62327 $x60014)))
    (let (($x63666 (= S1_V3_!7825 S1_V3_!7841)))
    (let (($x61184 (= E2_!7823 ?x62338)))
    (let (($x62278 (or $x199 $x61184)))
    (let (($x63229 (= E1_!7821 ?x64247)))
    (let (($x64541 (or $x197 $x63229)))
    (let (($x63903 (and $x64541 $x62278 $x64900 $x64040 $x60881 $x60114)))
    (let (($x64311 (not $x63903)))
    (let (($x61331 (or $x64311 $x63666)))
    (let (($x62929 (= S1_V3_!7825 S1_V3_!7835)))
    (let (($x63026 (or $x199 $x62460)))
    (let (($x62335 (or $x197 $x63176)))
    (let (($x61186 (and $x62335 $x63026)))
    (let (($x62496 (not $x61186)))
    (let (($x61463 (or $x62496 $x62929)))
    (let (($x63128 (= S1_V1_!7840 S1_V1_!7834)))
    (let (($x62965 (or $x62327 $x63128)))
    (let (($x63104 (= S1_V1_!7824 S1_V1_!7840)))
    (let (($x61074 (or $x64311 $x63104)))
    (let (($x61136 (= S1_V1_!7824 S1_V1_!7834)))
    (let (($x64039 (or $x62496 $x61136)))
    (let
    (($x60243
      (and $x64039 $x61074 $x62965 $x61463 $x61331 $x62836 $x62915 $x60997
      $x62351 $x62355 $x63176 $x60930 $x64963 $x62882 $x64121 $x62484 $x60193
      $x63912 $x62856 $x62735 $x64657 $x64316 $x61431 $x64970 $x63369 $x63272
      $x62485 $x59908 $x64218 $x60958 $x64330 $x62785)))
    (let (($x62573 (not $x60243))) (or $x62573 $x60161 $x61069)))))))))))))))))))))))))))))))))))))))))))))))))))))))))))))))))))))))))))))))))))))))))))))))))))))))))))))))))))))))))))))))))))))))))))))))))))))))))))))))))))))))))))))))))))))))))))))))))))))))))))
 (let (($x119 (not R_E1_V5)))
 (let (($x40 (and W_S1_V6 R_S1_V6)))
 (let (($x38 (and W_S1_V4 R_S1_V4)))
 (let (($x32 (and W_S1_V3 R_S1_V3)))
 (let (($x30 (and W_S1_V1 R_S1_V1)))
 (let (($x63953 (or $x30 $x32 R_S1_V5 $x38 $x40)))
 (let (($x64195 (not $x63953)))
 (let (($x64193 (= DISJ_W_S1_R_S1 $x64195)))
 (let (($x24 (and W_S1_V6 R_E2_V6)))
 (let (($x21 (and W_S1_V4 R_E2_V4)))
 (let (($x10 (and W_S1_V1 R_E2_V1)))
 (let (($x63998 (or $x10 R_E2_V5 $x21 $x24)))
 (let (($x59858 (not $x63998)))
 (let (($x64445 (= DISJ_W_S1_R_E2 $x59858)))
 (let (($x59788 (not W_S1_V1)))
 (let (($x63884 (or DISJ_W_S1_R_S1 $x59788)))
 (let (($x59796 (not W_S1_V2)))
 (let (($x115 (not R_E1_V3)))
 (let (($x113 (not R_E1_V1)))
 (let (($x130 (not R_E2_V3)))
 (and DISJ_W_S1_R_E1 $x130 $x113 $x115 $x59796 $x63884 W_S1_V5 $x64445
 $x64193 $x119 $x62691 $x64201 $x64210)))))))))))))))))))))))))))
(assert
 (let (($x59799 (not W_S1_V4)))
 (let (($x128 (not R_E2_V1)))
 (let (($x63502 (and $x128 $x59799 DISJ_W_S1_R_E2))) (not $x63502)))))
(check-sat)
(exit)

